
(set-option :produce-models true)
(set-option :inline-size-limit 10000)

(declare-const var0 String)

(push 1)
(assert (str.in.re var0 (re.* (re.range "\x01" "\xff"))))
(assert (str.in.re var0 (re.++ (re.*? re.allchar) (re.++ (re.++ (re.* (re.range "\x01" "\xff")) ((_ re.capture 1) (re.union (re.union (re.union (re.++ (str.to.re ".") (re.++ (re.union (str.to.re "J") (str.to.re "j")) (re.++ (re.union (str.to.re "P") (str.to.re "p")) (re.union (str.to.re "G") (str.to.re "g"))))) (re.++ (str.to.re ".") (re.++ (re.union (str.to.re "G") (str.to.re "g")) (re.++ (re.union (str.to.re "I") (str.to.re "i")) (re.union (str.to.re "F") (str.to.re "f")))))) (re.++ (str.to.re ".") (re.++ (re.union (str.to.re "J") (str.to.re "j")) (re.++ (re.union (str.to.re "P") (str.to.re "p")) (re.++ (re.union (str.to.re "E") (str.to.re "e")) (re.union (str.to.re "G") (str.to.re "g"))))))) (re.++ (str.to.re ".") (re.++ (re.union (str.to.re "P") (str.to.re "p")) (re.++ (re.union (str.to.re "N") (str.to.re "n")) (re.union (str.to.re "G") (str.to.re "g")))))))) re.all))))	; match!==null
(assert (not (str.in.re ((_ str.extract 1) var0 (re.++ (re.*? re.allchar) (re.++ (re.++ (re.* (re.range "\x01" "\xff")) ((_ re.capture 1) (re.union (re.union (re.union (re.++ (str.to.re ".") (re.++ (re.union (str.to.re "J") (str.to.re "j")) (re.++ (re.union (str.to.re "P") (str.to.re "p")) (re.union (str.to.re "G") (str.to.re "g"))))) (re.++ (str.to.re ".") (re.++ (re.union (str.to.re "G") (str.to.re "g")) (re.++ (re.union (str.to.re "I") (str.to.re "i")) (re.union (str.to.re "F") (str.to.re "f")))))) (re.++ (str.to.re ".") (re.++ (re.union (str.to.re "J") (str.to.re "j")) (re.++ (re.union (str.to.re "P") (str.to.re "p")) (re.++ (re.union (str.to.re "E") (str.to.re "e")) (re.union (str.to.re "G") (str.to.re "g"))))))) (re.++ (str.to.re ".") (re.++ (re.union (str.to.re "P") (str.to.re "p")) (re.++ (re.union (str.to.re "N") (str.to.re "n")) (re.union (str.to.re "G") (str.to.re "g")))))))) re.all))) (str.to.re "\x00"))))
;match[1]!==null
(assert (str.in.re ((_ str.extract 1) var0 (re.++ (re.*? re.allchar) (re.++ (re.++ (re.* (re.range "\x01" "\xff")) ((_ re.capture 1) (re.union (re.union (re.union (re.++ (str.to.re ".") (re.++ (re.union (str.to.re "J") (str.to.re "j")) (re.++ (re.union (str.to.re "P") (str.to.re "p")) (re.union (str.to.re "G") (str.to.re "g"))))) (re.++ (str.to.re ".") (re.++ (re.union (str.to.re "G") (str.to.re "g")) (re.++ (re.union (str.to.re "I") (str.to.re "i")) (re.union (str.to.re "F") (str.to.re "f")))))) (re.++ (str.to.re ".") (re.++ (re.union (str.to.re "J") (str.to.re "j")) (re.++ (re.union (str.to.re "P") (str.to.re "p")) (re.++ (re.union (str.to.re "E") (str.to.re "e")) (re.union (str.to.re "G") (str.to.re "g"))))))) (re.++ (str.to.re ".") (re.++ (re.union (str.to.re "P") (str.to.re "p")) (re.++ (re.union (str.to.re "N") (str.to.re "n")) (re.union (str.to.re "G") (str.to.re "g")))))))) re.all))) (re.++ re.all(re.+ (re.range "a" "z")) re.all) ))
;/[a-z]+/.test(match[1]) == true
(check-sat)
(get-model)
(pop 1)
(push 1)
(assert (str.in.re var0 (re.* (re.range "\x01" "\xff"))))
(assert (str.in.re var0 (re.++ (re.*? re.allchar) (re.++ (re.++ (re.* (re.range "\x01" "\xff")) ((_ re.capture 1) (re.union (re.union (re.union (re.++ (str.to.re ".") (re.++ (re.union (str.to.re "J") (str.to.re "j")) (re.++ (re.union (str.to.re "P") (str.to.re "p")) (re.union (str.to.re "G") (str.to.re "g"))))) (re.++ (str.to.re ".") (re.++ (re.union (str.to.re "G") (str.to.re "g")) (re.++ (re.union (str.to.re "I") (str.to.re "i")) (re.union (str.to.re "F") (str.to.re "f")))))) (re.++ (str.to.re ".") (re.++ (re.union (str.to.re "J") (str.to.re "j")) (re.++ (re.union (str.to.re "P") (str.to.re "p")) (re.++ (re.union (str.to.re "E") (str.to.re "e")) (re.union (str.to.re "G") (str.to.re "g"))))))) (re.++ (str.to.re ".") (re.++ (re.union (str.to.re "P") (str.to.re "p")) (re.++ (re.union (str.to.re "N") (str.to.re "n")) (re.union (str.to.re "G") (str.to.re "g")))))))) re.all))))	; match!==null
(assert (not (str.in.re ((_ str.extract 1) var0 (re.++ (re.*? re.allchar) (re.++ (re.++ (re.* (re.range "\x01" "\xff")) ((_ re.capture 1) (re.union (re.union (re.union (re.++ (str.to.re ".") (re.++ (re.union (str.to.re "J") (str.to.re "j")) (re.++ (re.union (str.to.re "P") (str.to.re "p")) (re.union (str.to.re "G") (str.to.re "g"))))) (re.++ (str.to.re ".") (re.++ (re.union (str.to.re "G") (str.to.re "g")) (re.++ (re.union (str.to.re "I") (str.to.re "i")) (re.union (str.to.re "F") (str.to.re "f")))))) (re.++ (str.to.re ".") (re.++ (re.union (str.to.re "J") (str.to.re "j")) (re.++ (re.union (str.to.re "P") (str.to.re "p")) (re.++ (re.union (str.to.re "E") (str.to.re "e")) (re.union (str.to.re "G") (str.to.re "g"))))))) (re.++ (str.to.re ".") (re.++ (re.union (str.to.re "P") (str.to.re "p")) (re.++ (re.union (str.to.re "N") (str.to.re "n")) (re.union (str.to.re "G") (str.to.re "g")))))))) re.all))) (str.to.re "\x00"))))	
;match[1]!==null
(assert (not (str.in.re ((_ str.extract 1) var0 (re.++ (re.*? re.allchar) (re.++ (re.++ (re.* (re.range "\x01" "\xff")) ((_ re.capture 1) (re.union (re.union (re.union (re.++ (str.to.re ".") (re.++ (re.union (str.to.re "J") (str.to.re "j")) (re.++ (re.union (str.to.re "P") (str.to.re "p")) (re.union (str.to.re "G") (str.to.re "g"))))) (re.++ (str.to.re ".") (re.++ (re.union (str.to.re "G") (str.to.re "g")) (re.++ (re.union (str.to.re "I") (str.to.re "i")) (re.union (str.to.re "F") (str.to.re "f")))))) (re.++ (str.to.re ".") (re.++ (re.union (str.to.re "J") (str.to.re "j")) (re.++ (re.union (str.to.re "P") (str.to.re "p")) (re.++ (re.union (str.to.re "E") (str.to.re "e")) (re.union (str.to.re "G") (str.to.re "g"))))))) (re.++ (str.to.re ".") (re.++ (re.union (str.to.re "P") (str.to.re "p")) (re.++ (re.union (str.to.re "N") (str.to.re "n")) (re.union (str.to.re "G") (str.to.re "g")))))))) re.all))) (re.++ re.all(re.+ (re.range "a" "z")) re.all) )))
;/[a-z]+/.test(match[1]) == false	
(check-sat)
(get-model)
(pop 1)
(push 1)
(assert (str.in.re var0 (re.* (re.range "\x01" "\xff"))))
(assert (str.in.re var0 (re.++ (re.*? re.allchar) (re.++ (re.++ (re.* (re.range "\x01" "\xff")) ((_ re.capture 1) (re.union (re.union (re.union (re.++ (str.to.re ".") (re.++ (re.union (str.to.re "J") (str.to.re "j")) (re.++ (re.union (str.to.re "P") (str.to.re "p")) (re.union (str.to.re "G") (str.to.re "g"))))) (re.++ (str.to.re ".") (re.++ (re.union (str.to.re "G") (str.to.re "g")) (re.++ (re.union (str.to.re "I") (str.to.re "i")) (re.union (str.to.re "F") (str.to.re "f")))))) (re.++ (str.to.re ".") (re.++ (re.union (str.to.re "J") (str.to.re "j")) (re.++ (re.union (str.to.re "P") (str.to.re "p")) (re.++ (re.union (str.to.re "E") (str.to.re "e")) (re.union (str.to.re "G") (str.to.re "g"))))))) (re.++ (str.to.re ".") (re.++ (re.union (str.to.re "P") (str.to.re "p")) (re.++ (re.union (str.to.re "N") (str.to.re "n")) (re.union (str.to.re "G") (str.to.re "g")))))))) re.all))))	; match!==null
(assert (str.in.re ((_ str.extract 1) var0 (re.++ (re.*? re.allchar) (re.++ (re.++ (re.* (re.range "\x01" "\xff")) ((_ re.capture 1) (re.union (re.union (re.union (re.++ (str.to.re ".") (re.++ (re.union (str.to.re "J") (str.to.re "j")) (re.++ (re.union (str.to.re "P") (str.to.re "p")) (re.union (str.to.re "G") (str.to.re "g"))))) (re.++ (str.to.re ".") (re.++ (re.union (str.to.re "G") (str.to.re "g")) (re.++ (re.union (str.to.re "I") (str.to.re "i")) (re.union (str.to.re "F") (str.to.re "f")))))) (re.++ (str.to.re ".") (re.++ (re.union (str.to.re "J") (str.to.re "j")) (re.++ (re.union (str.to.re "P") (str.to.re "p")) (re.++ (re.union (str.to.re "E") (str.to.re "e")) (re.union (str.to.re "G") (str.to.re "g"))))))) (re.++ (str.to.re ".") (re.++ (re.union (str.to.re "P") (str.to.re "p")) (re.++ (re.union (str.to.re "N") (str.to.re "n")) (re.union (str.to.re "G") (str.to.re "g")))))))) re.all))) (str.to.re "\x00")))
;match[1]==null
(check-sat)
(get-model)
(pop 1)
(push 1)
(assert (str.in.re var0 (re.* (re.range "\x01" "\xff"))))
(assert (not (str.in.re var0 (re.++ (re.*? re.allchar) (re.++ (re.++ (re.* (re.range "\x01" "\xff")) ((_ re.capture 1) (re.union (re.union (re.union (re.++ (str.to.re ".") (re.++ (re.union (str.to.re "J") (str.to.re "j")) (re.++ (re.union (str.to.re "P") (str.to.re "p")) (re.union (str.to.re "G") (str.to.re "g"))))) (re.++ (str.to.re ".") (re.++ (re.union (str.to.re "G") (str.to.re "g")) (re.++ (re.union (str.to.re "I") (str.to.re "i")) (re.union (str.to.re "F") (str.to.re "f")))))) (re.++ (str.to.re ".") (re.++ (re.union (str.to.re "J") (str.to.re "j")) (re.++ (re.union (str.to.re "P") (str.to.re "p")) (re.++ (re.union (str.to.re "E") (str.to.re "e")) (re.union (str.to.re "G") (str.to.re "g"))))))) (re.++ (str.to.re ".") (re.++ (re.union (str.to.re "P") (str.to.re "p")) (re.++ (re.union (str.to.re "N") (str.to.re "n")) (re.union (str.to.re "G") (str.to.re "g")))))))) re.all)))))	; match == null
(check-sat)
(get-model)
(pop 1)
(exit)
